data/solutions/recovery/degenerate/intermediate/flexible/degenerate_intermediate_instance23/31.sol
Elapsed time: 100.08
Upper bound: 227661255.0
Planning weighted value: 8.89128425196e+11
C[0]=227661255.0
C[1]=227598388.0
C[2]=227580373.0
C[3]=227201591.0
C[4]=226886419.0
C[5]=226798657.0
C[6]=226286142.0
C[7]=224559815.0
C[8]=224361934.0
C[9]=222059501.0
C[10]=221411825.0
C[11]=0.0
y[0]=6
y[1]=4
y[2]=6
y[3]=7
y[4]=7
y[5]=7
y[6]=9
y[7]=4
y[8]=6
y[9]=8
y[10]=2
y[11]=1
y[12]=0
y[13]=0
y[14]=5
y[15]=10
y[16]=4
y[17]=4
y[18]=10
y[19]=2
y[20]=8
y[21]=6
y[22]=3
y[23]=10
y[24]=8
y[25]=1
y[26]=2
y[27]=3
y[28]=10
y[29]=0
y[30]=5
y[31]=3
y[32]=0
y[33]=8
y[34]=10
y[35]=5
y[36]=4
y[37]=9
y[38]=1
y[39]=6
y[40]=4
y[41]=9
y[42]=0
y[43]=0
y[44]=7
y[45]=2
y[46]=9
y[47]=6
y[48]=6
y[49]=4
y[50]=3
y[51]=2
y[52]=8
y[53]=10
y[54]=1
y[55]=1
y[56]=5
y[57]=7
y[58]=5
y[59]=3
y[60]=9
y[61]=4
y[62]=3
y[63]=8
y[64]=1
y[65]=3
y[66]=0
y[67]=7
y[68]=7
y[69]=6
y[70]=0
y[71]=4
y[72]=9
y[73]=2
y[74]=2
y[75]=5
y[76]=2
y[77]=6
