data/solutions/recovery/degenerate/intermediate/flexible/degenerate_intermediate_instance23/31.log

Log started (V12.6.3.0) Sat Apr 21 15:20:26 2018

New value for default parallel thread count: 1

Problem '/tmp/tmpsgE07P.pyomo.lp' read.
Read time = 0.01 sec. (0.84 ticks)

Problem name         : /tmp/tmpsgE07P.pyomo.lp
Objective sense      : Minimize
Variables            :     950  [Nneg: 1,  Binary: 936,  General Integer: 13]
Objective nonzeros   :       1
Linear constraints   :     182  [Less: 90,  Equal: 92]
  Nonzeros           :   60259
  RHS nonzeros       :     157

Variables            : Min LB: 0.000000         Max UB: 1.000000       
Objective nonzeros   : Min   : 1.000000         Max   : 1.000000       
Linear constraints   :
  Nonzeros           : Min   : 1.000000         Max   : 6.145599e+07   
  RHS nonzeros       : Min   : 1.000000         Max   : 8.000000       
Tried aggregator 2 times.
MIP Presolve eliminated 82 rows and 141 columns.
Aggregator did 5 substitutions.
Reduced MIP has 95 rows, 804 columns, and 2247 nonzeros.
Reduced MIP has 792 binaries, 12 generals, 0 SOSs, and 0 indicators.
Presolve time = 0.01 sec. (10.91 ticks)
Found incumbent of value 7.8007346e+08 after 0.01 sec. (12.44 ticks)
Probing time = 0.00 sec. (1.59 ticks)
Tried aggregator 1 time.
Reduced MIP has 95 rows, 804 columns, and 2247 nonzeros.
Reduced MIP has 792 binaries, 12 generals, 0 SOSs, and 0 indicators.
Presolve time = 0.00 sec. (1.15 ticks)
Probing time = 0.00 sec. (1.59 ticks)
Clique table members: 72.
MIP emphasis: balance optimality and feasibility.
MIP search method: dynamic search.
Parallel mode: none, using 1 thread.
Root relaxation solution time = 0.00 sec. (1.44 ticks)

        Nodes                                         Cuts/
   Node  Left     Objective  IInf  Best Integer    Best Bound    ItCnt     Gap

*     0+    0                       7.80073e+08        0.0000           100.00%
      0     0   2.25673e+08    29   7.80073e+08   2.25673e+08      129   71.07%
      0     0   2.25673e+08    35   7.80073e+08      Fract: 9      147   71.07%
*     0+    0                       2.72497e+08   2.25673e+08            17.18%
*     0+    0                       2.63926e+08   2.25673e+08            14.49%
*     0+    0                       2.54124e+08   2.25673e+08            11.20%
*     0+    0                       2.52365e+08   2.25673e+08            10.58%
*     0+    0                       2.51975e+08   2.25673e+08            10.44%
*     0+    0                       2.51242e+08   2.25673e+08            10.18%
*     0+    0                       2.46767e+08   2.25673e+08             8.55%
*     0+    0                       2.45186e+08   2.25673e+08             7.96%
      0     2   2.25673e+08    33   2.45186e+08   2.25673e+08      147    7.96%
Elapsed time = 0.05 sec. (49.95 ticks, tree = 0.01 MB, solutions = 9)
*    30+   30                       2.44709e+08   2.25673e+08             7.78%
*   100+   78                       2.40294e+08   2.25673e+08             6.08%
*   120+   78                       2.39170e+08   2.25673e+08             5.64%
*   130+   82                       2.36625e+08   2.25673e+08             4.63%
*   340+  207                       2.36291e+08   2.25673e+08             4.49%
*   720+  473                       2.35818e+08   2.25673e+08             4.30%
    881   577   2.33370e+08    11   2.35818e+08   2.25673e+08     4678    4.30%
    882   578   2.33370e+08    12   2.35818e+08   2.25673e+08     4680    4.30%
    883   578   2.33370e+08    11   2.35818e+08   2.25673e+08     4682    4.30%
    884   579   2.33370e+08    11   2.35818e+08   2.25673e+08     4684    4.30%
    885   580   2.33370e+08    11   2.35818e+08   2.25673e+08     4688    4.30%
    886   581   2.33370e+08    10   2.35818e+08   2.25673e+08     4690    4.30%
    887   580        cutoff         2.35818e+08   2.25673e+08     4695    4.30%
    888   581   2.33370e+08    11   2.35818e+08   2.25673e+08     4697    4.30%
    889   582   2.33370e+08     8   2.35818e+08   2.25673e+08     4699    4.30%
*   900+  578                       2.35349e+08   2.25673e+08             4.11%
*   940+  564                       2.34668e+08   2.25673e+08             3.83%
*  1000+  608                       2.33526e+08   2.25673e+08             3.36%
*  1611+  636                       2.31239e+08   2.25673e+08             2.41%
*  2011+  155                       2.31177e+08   2.25673e+08             2.38%
*  2011+  147                       2.30701e+08   2.25673e+08             2.18%
   2011   149   2.26799e+08    19   2.30701e+08   2.25673e+08     9989    2.18%
Elapsed time = 0.80 sec. (1029.82 ticks, tree = 0.08 MB, solutions = 21)
*  2111+  171                       2.28499e+08   2.25673e+08             1.24%
*  2111+  171                       2.28138e+08   2.25673e+08             1.08%
*  2611+  415                       2.28040e+08   2.25673e+08             1.04%
*  2711+  471                       2.27661e+08   2.25673e+08             0.87%
   2911   550   2.25680e+08    30   2.27661e+08   2.25673e+08    13134    0.87%
   2912   551   2.25680e+08    30   2.27661e+08   2.25673e+08    13134    0.87%
   2913   552   2.25681e+08    29   2.27661e+08   2.25673e+08    13135    0.87%
   2914   553   2.25681e+08    29   2.27661e+08   2.25673e+08    13137    0.87%
   2915   554   2.25681e+08    29   2.27661e+08   2.25673e+08    13141    0.87%
   2916   555   2.25856e+08    27   2.27661e+08   2.25673e+08    13142    0.87%
   2917   556   2.25856e+08    27   2.27661e+08   2.25673e+08    13143    0.87%
   2918   557   2.25856e+08    27   2.27661e+08   2.25673e+08    13144    0.87%
   2919   558   2.25856e+08    28   2.27661e+08   2.25673e+08    13146    0.87%
   2920   559   2.25858e+08    28   2.27661e+08   2.25673e+08    13148    0.87%
Elapsed time = 1.67 sec. (2043.96 ticks, tree = 0.34 MB, solutions = 25)
   6434  2415   2.25673e+08    18   2.27661e+08   2.25673e+08    29196    0.87%
   6435  2416   2.25673e+08    17   2.27661e+08   2.25673e+08    29198    0.87%
   6436  2417   2.25673e+08    18   2.27661e+08   2.25673e+08    29199    0.87%
   6437  2418   2.25673e+08    21   2.27661e+08   2.25673e+08    29202    0.87%
   6438  2419   2.25673e+08    17   2.27661e+08   2.25673e+08    29204    0.87%
   6439  2419   2.25673e+08    20   2.27661e+08   2.25673e+08    29211    0.87%
   6440  2420   2.25673e+08    18   2.27661e+08   2.25673e+08    29212    0.87%
   6441  2421   2.25673e+08    18   2.27661e+08   2.25673e+08    29221    0.87%
   6442  2421   2.25673e+08    19   2.27661e+08   2.25673e+08    29228    0.87%
   6443  2421   2.25673e+08    19   2.27661e+08   2.25673e+08    29234    0.87%
Elapsed time = 2.42 sec. (3001.95 ticks, tree = 1.54 MB, solutions = 25)
   8960  3906   2.27496e+08    14   2.27661e+08   2.25673e+08    51570    0.87%
   8961  3906   2.27496e+08    18   2.27661e+08   2.25673e+08    51577    0.87%
   8962  3907   2.27496e+08    18   2.27661e+08   2.25673e+08    51582    0.87%
   8963  3908   2.27496e+08    18   2.27661e+08   2.25673e+08    51583    0.87%
   8964  3909   2.27496e+08    15   2.27661e+08   2.25673e+08    51598    0.87%
   8965  3910   2.27496e+08    14   2.27661e+08   2.25673e+08    51599    0.87%
   8966  3911   2.27496e+08    15   2.27661e+08   2.25673e+08    51602    0.87%
   8967  3912   2.27496e+08    12   2.27661e+08   2.25673e+08    51610    0.87%
   8968  3911        cutoff         2.27661e+08   2.25673e+08    51622    0.87%
   8969  3910        cutoff         2.27661e+08   2.25673e+08    51623    0.87%
Elapsed time = 3.15 sec. (3957.68 ticks, tree = 2.41 MB, solutions = 25)
  11571  5747   2.26270e+08    23   2.27661e+08   2.25673e+08    74093    0.87%
  11572  5748   2.25673e+08    25   2.27661e+08   2.25673e+08    74142    0.87%
  11573  5749   2.25673e+08    24   2.27661e+08   2.25673e+08    74175    0.87%
  11574  5750   2.25673e+08    18   2.27661e+08   2.25673e+08    74191    0.87%
  11575  5751   2.25673e+08    18   2.27661e+08   2.25673e+08    74195    0.87%
  11576  5752   2.25673e+08    19   2.27661e+08   2.25673e+08    74198    0.87%
  11577  5753   2.25673e+08    18   2.27661e+08   2.25673e+08    74202    0.87%
  11578  5754   2.25673e+08    19   2.27661e+08   2.25673e+08    74208    0.87%
  11579  5755   2.25673e+08    22   2.27661e+08   2.25673e+08    74237    0.87%
  11580  5756   2.25673e+08    21   2.27661e+08   2.25673e+08    74246    0.87%
Elapsed time = 4.05 sec. (5099.83 ticks, tree = 3.62 MB, solutions = 25)
  13772  7424        cutoff         2.27661e+08   2.25673e+08   100350    0.87%
  13773  7423        cutoff         2.27661e+08   2.25673e+08   100375    0.87%
  13774  7422        cutoff         2.27661e+08   2.25673e+08   100419    0.87%
  13775  7423   2.25673e+08    20   2.27661e+08   2.25673e+08   100476    0.87%
  13776  7422    infeasible         2.27661e+08   2.25673e+08   100476    0.87%
  13777  7423   2.25673e+08    18   2.27661e+08   2.25673e+08   100526    0.87%
  13778  7424   2.25673e+08    18   2.27661e+08   2.25673e+08   100537    0.87%
  13779  7425   2.25673e+08    18   2.27661e+08   2.25673e+08   100544    0.87%
  13780  7426   2.25673e+08    18   2.27661e+08   2.25673e+08   100545    0.87%
  13781  7427   2.25673e+08    18   2.27661e+08   2.25673e+08   100546    0.87%
Elapsed time = 4.77 sec. (6063.73 ticks, tree = 4.61 MB, solutions = 25)
  15671  8822        cutoff         2.27661e+08   2.25673e+08   127550    0.87%
  15672  8823   2.25673e+08    25   2.27661e+08   2.25673e+08   127558    0.87%
  15673  8824   2.25673e+08    24   2.27661e+08   2.25673e+08   127566    0.87%
  15674  8825   2.25673e+08    23   2.27661e+08   2.25673e+08   127567    0.87%
  15675  8826   2.25673e+08    23   2.27661e+08   2.25673e+08   127568    0.87%
  15676  8827   2.25673e+08    22   2.27661e+08   2.25673e+08   127575    0.87%
  15677  8828   2.25673e+08    22   2.27661e+08   2.25673e+08   127576    0.87%
  15678  8829   2.25673e+08    21   2.27661e+08   2.25673e+08   127580    0.87%
  15679  8830   2.25673e+08    23   2.27661e+08   2.25673e+08   127585    0.87%
  15680  8831   2.25673e+08    22   2.27661e+08   2.25673e+08   127587    0.87%
Elapsed time = 5.49 sec. (7019.16 ticks, tree = 5.65 MB, solutions = 25)
  17283  9899   2.25673e+08    31   2.27661e+08   2.25673e+08   156379    0.87%
  17284  9900   2.25673e+08    33   2.27661e+08   2.25673e+08   156384    0.87%
  17285  9901   2.25673e+08    32   2.27661e+08   2.25673e+08   156385    0.87%
  17286  9902   2.25673e+08    28   2.27661e+08   2.25673e+08   156391    0.87%
  17287  9903   2.25673e+08    28   2.27661e+08   2.25673e+08   156392    0.87%
  17288  9904   2.25673e+08    25   2.27661e+08   2.25673e+08   156394    0.87%
  17289  9905   2.25673e+08    22   2.27661e+08   2.25673e+08   156397    0.87%
  17290  9906   2.25673e+08    20   2.27661e+08   2.25673e+08   156399    0.87%
  17291  9907   2.25673e+08    23   2.27661e+08   2.25673e+08   156404    0.87%
  17292  9908   2.25673e+08    23   2.27661e+08   2.25673e+08   156406    0.87%
Elapsed time = 6.31 sec. (7975.26 ticks, tree = 6.29 MB, solutions = 25)
  19152 11401        cutoff         2.27661e+08   2.25673e+08   182988    0.87%
  19153 11400        cutoff         2.27661e+08   2.25673e+08   183077    0.87%
  19154 11399        cutoff         2.27661e+08   2.25673e+08   183102    0.87%
  19155 11398        cutoff         2.27661e+08   2.25673e+08   183310    0.87%
  19156 11397    infeasible         2.27661e+08   2.25673e+08   183310    0.87%
  19157 11396        cutoff         2.27661e+08   2.25673e+08   183383    0.87%
  19158 11395        cutoff         2.27661e+08   2.25673e+08   183416    0.87%
  19159 11394        cutoff         2.27661e+08   2.25673e+08   183437    0.87%
  19160 11395   2.27265e+08    16   2.27661e+08   2.25673e+08   183635    0.87%
  19161 11396   2.27265e+08    17   2.27661e+08   2.25673e+08   183639    0.87%
Elapsed time = 7.02 sec. (8947.89 ticks, tree = 7.15 MB, solutions = 25)
  21096 13005   2.25673e+08    23   2.27661e+08   2.25673e+08   210980    0.87%
  21097 13006   2.25679e+08    35   2.27661e+08   2.25673e+08   210989    0.87%
  21098 13007   2.25679e+08    34   2.27661e+08   2.25673e+08   210996    0.87%
  21099 13008   2.25679e+08    34   2.27661e+08   2.25673e+08   211001    0.87%
  21100 13009   2.25679e+08    33   2.27661e+08   2.25673e+08   211015    0.87%
  21101 13010   2.25679e+08    33   2.27661e+08   2.25673e+08   211017    0.87%
  21102 13011   2.25679e+08    34   2.27661e+08   2.25673e+08   211024    0.87%
  21103 13012   2.27027e+08    28   2.27661e+08   2.25673e+08   211060    0.87%
  21104 13013   2.27027e+08    28   2.27661e+08   2.25673e+08   211063    0.87%
  25038 15818   2.25673e+08    35   2.27661e+08   2.25673e+08   293165    0.87%
Elapsed time = 9.80 sec. (12764.05 ticks, tree = 9.82 MB, solutions = 25)
  29611 19120   2.25673e+08    28   2.27661e+08   2.25673e+08   388193    0.87%
  29612 19121   2.25673e+08    29   2.27661e+08   2.25673e+08   388212    0.87%
  29613 19122   2.25673e+08    34   2.27661e+08   2.25673e+08   388227    0.87%
  29614 19123   2.25673e+08    31   2.27661e+08   2.25673e+08   388228    0.87%
  29615 19124   2.25673e+08    30   2.27661e+08   2.25673e+08   388250    0.87%
  29616 19125   2.25673e+08    28   2.27661e+08   2.25673e+08   388252    0.87%
  29617 19126   2.25673e+08    24   2.27661e+08   2.25673e+08   388259    0.87%
  29618 19127   2.25673e+08    29   2.27661e+08   2.25673e+08   388280    0.87%
  29619 19128   2.25673e+08    29   2.27661e+08   2.25673e+08   388285    0.87%
  29620 19129   2.25673e+08    28   2.27661e+08   2.25673e+08   388288    0.87%
Elapsed time = 12.61 sec. (16584.41 ticks, tree = 12.26 MB, solutions = 25)
  34146 22586   2.25673e+08    23   2.27661e+08   2.25673e+08   480276    0.87%
  34147 22587   2.25673e+08    23   2.27661e+08   2.25673e+08   480278    0.87%
  34148 22588   2.25673e+08    24   2.27661e+08   2.25673e+08   480283    0.87%
  34149 22589   2.25673e+08    24   2.27661e+08   2.25673e+08   480286    0.87%
  34150 22590   2.25673e+08    25   2.27661e+08   2.25673e+08   480312    0.87%
  34151 22591   2.25673e+08    23   2.27661e+08   2.25673e+08   480315    0.87%
  34152 22592   2.25673e+08    23   2.27661e+08   2.25673e+08   480316    0.87%
  34153 22593   2.25673e+08    23   2.27661e+08   2.25673e+08   480317    0.87%
  34154 22594   2.25673e+08    26   2.27661e+08   2.25673e+08   480351    0.87%
  34155 22595   2.25742e+08    32   2.27661e+08   2.25673e+08   480426    0.87%
Elapsed time = 15.42 sec. (20403.96 ticks, tree = 14.38 MB, solutions = 25)
  38664 25422        cutoff         2.27661e+08   2.25673e+08   572650    0.87%
  38665 25422   2.26251e+08    29   2.27661e+08   2.25673e+08   572907    0.87%
  38666 25423   2.26284e+08    22   2.27661e+08   2.25673e+08   572914    0.87%
  38667 25422        cutoff         2.27661e+08   2.25673e+08   572917    0.87%
  38668 25421        cutoff         2.27661e+08   2.25673e+08   572920    0.87%
  38669 25420    infeasible         2.27661e+08   2.25673e+08   572920    0.87%
  38670 25419    infeasible         2.27661e+08   2.25673e+08   572920    0.87%
  38671 25418        cutoff         2.27661e+08   2.25673e+08   572946    0.87%
  38672 25417    infeasible         2.27661e+08   2.25673e+08   572946    0.87%
  38673 25416    infeasible         2.27661e+08   2.25673e+08   572946    0.87%
Elapsed time = 18.22 sec. (24234.35 ticks, tree = 16.19 MB, solutions = 25)
  42905 28588   2.25673e+08    31   2.27661e+08   2.25673e+08   650080    0.87%
  42906 28589   2.25673e+08    31   2.27661e+08   2.25673e+08   650106    0.87%
  42907 28590   2.25673e+08    31   2.27661e+08   2.25673e+08   650107    0.87%
  42908 28589    infeasible         2.27661e+08   2.25673e+08   650208    0.87%
  42909 28590   2.25673e+08    30   2.27661e+08   2.25673e+08   650218    0.87%
  42910 28591   2.25673e+08    28   2.27661e+08   2.25673e+08   650226    0.87%
  42911 28592   2.25673e+08    28   2.27661e+08   2.25673e+08   650257    0.87%
  42912 28593   2.25673e+08    29   2.27661e+08   2.25673e+08   650333    0.87%
  42913 28594   2.26575e+08    24   2.27661e+08   2.25673e+08   650378    0.87%
  42914 28595   2.26575e+08    24   2.27661e+08   2.25673e+08   650380    0.87%
Elapsed time = 20.91 sec. (28062.39 ticks, tree = 18.12 MB, solutions = 25)
  46795 31055   2.26420e+08    29   2.27661e+08   2.25673e+08   743178    0.87%
  46796 31055   2.26420e+08    28   2.27661e+08   2.25673e+08   743182    0.87%
  46797 31054        cutoff         2.27661e+08   2.25673e+08   743227    0.87%
  46798 31053    infeasible         2.27661e+08   2.25673e+08   743227    0.87%
  46799 31054   2.25673e+08    34   2.27661e+08   2.25673e+08   743311    0.87%
  46800 31055   2.25673e+08    32   2.27661e+08   2.25673e+08   743313    0.87%
  46801 31056   2.25673e+08    29   2.27661e+08   2.25673e+08   743316    0.87%
  46802 31057   2.25673e+08    29   2.27661e+08   2.25673e+08   743326    0.87%
  46803 31058   2.25673e+08    28   2.27661e+08   2.25673e+08   743353    0.87%
  46804 31059   2.25673e+08    28   2.27661e+08   2.25673e+08   743354    0.87%
Elapsed time = 24.13 sec. (31899.27 ticks, tree = 19.68 MB, solutions = 25)
  51101 34097   2.27496e+08    27   2.27661e+08   2.25673e+08   827764    0.87%
  51102 34096    infeasible         2.27661e+08   2.25673e+08   827824    0.87%
  51103 34095        cutoff         2.27661e+08   2.25673e+08   827827    0.87%
  51104 34094    infeasible         2.27661e+08   2.25673e+08   827902    0.87%
  51105 34095   2.25799e+08    28   2.27661e+08   2.25673e+08   827991    0.87%
  51106 34096   2.25799e+08    28   2.27661e+08   2.25673e+08   828004    0.87%
  51107 34097   2.25799e+08    28   2.27661e+08   2.25673e+08   828006    0.87%
  51108 34098   2.25799e+08    31   2.27661e+08   2.25673e+08   828037    0.87%
  51109 34099   2.25799e+08    32   2.27661e+08   2.25673e+08   828041    0.87%
  51110 34100   2.26515e+08    24   2.27661e+08   2.25673e+08   828053    0.87%
Elapsed time = 27.64 sec. (35737.06 ticks, tree = 22.60 MB, solutions = 25)
  54685 36129   2.25673e+08    23   2.27661e+08   2.25673e+08   914535    0.87%
  54686 36130   2.25673e+08    22   2.27661e+08   2.25673e+08   914536    0.87%
  54687 36131   2.25673e+08    22   2.27661e+08   2.25673e+08   914537    0.87%
  54688 36132   2.25673e+08    22   2.27661e+08   2.25673e+08   914540    0.87%
  54689 36133   2.25673e+08    23   2.27661e+08   2.25673e+08   914541    0.87%
  54690 36134   2.25673e+08    24   2.27661e+08   2.25673e+08   914543    0.87%
  54691 36135   2.25673e+08    23   2.27661e+08   2.25673e+08   914554    0.87%
  54692 36136   2.25673e+08    24   2.27661e+08   2.25673e+08   914560    0.87%
  54693 36137   2.25673e+08    28   2.27661e+08   2.25673e+08   914562    0.87%
  54694 36138   2.25673e+08    27   2.27661e+08   2.25673e+08   914566    0.87%
Elapsed time = 31.19 sec. (39555.10 ticks, tree = 23.95 MB, solutions = 25)
  58031 38316        cutoff         2.27661e+08   2.25673e+08   995069    0.87%
  58032 38315    infeasible         2.27661e+08   2.25673e+08   995194    0.87%
  58033 38314    infeasible         2.27661e+08   2.25673e+08   995194    0.87%
  58034 38313    infeasible         2.27661e+08   2.25673e+08   995194    0.87%
  58035 38312        cutoff         2.27661e+08   2.25673e+08   995285    0.87%
  58036 38311    infeasible         2.27661e+08   2.25673e+08   995379    0.87%
  58037 38310    infeasible         2.27661e+08   2.25673e+08   995379    0.87%
  58038 38309        cutoff         2.27661e+08   2.25673e+08   995448    0.87%
  58039 38308        cutoff         2.27661e+08   2.25673e+08   995495    0.87%
  58040 38307        cutoff         2.27661e+08   2.25673e+08   995514    0.87%
Elapsed time = 34.76 sec. (43388.08 ticks, tree = 28.78 MB, solutions = 25)
  60753 39547        cutoff         2.27661e+08   2.25673e+08  1079190    0.87%
  60754 39546        cutoff         2.27661e+08   2.25673e+08  1079228    0.87%
  60755 39545    infeasible         2.27661e+08   2.25673e+08  1079421    0.87%
  60756 39544        cutoff         2.27661e+08   2.25673e+08  1079427    0.87%
  60757 39543        cutoff         2.27661e+08   2.25673e+08  1079436    0.87%
  60758 39544   2.25673e+08    19   2.27661e+08   2.25673e+08  1079494    0.87%
  60759 39545   2.25673e+08    19   2.27661e+08   2.25673e+08  1079500    0.87%
  60760 39546   2.25673e+08    19   2.27661e+08   2.25673e+08  1079543    0.87%
  60761 39547   2.25673e+08    19   2.27661e+08   2.25673e+08  1079583    0.87%
  60762 39548   2.25673e+08    19   2.27661e+08   2.25673e+08  1079625    0.87%
Elapsed time = 38.40 sec. (47216.25 ticks, tree = 30.29 MB, solutions = 25)
  64598 41922   2.25673e+08    26   2.27661e+08   2.25673e+08  1165167    0.87%
  64599 41923   2.25673e+08    26   2.27661e+08   2.25673e+08  1165168    0.87%
  64600 41924   2.25673e+08    25   2.27661e+08   2.25673e+08  1165176    0.87%
  64601 41925   2.25673e+08    25   2.27661e+08   2.25673e+08  1165180    0.87%
  64602 41926   2.25673e+08    24   2.27661e+08   2.25673e+08  1165193    0.87%
  64603 41927   2.25673e+08    25   2.27661e+08   2.25673e+08  1165214    0.87%
  64604 41928   2.25673e+08    24   2.27661e+08   2.25673e+08  1165215    0.87%
  64605 41929   2.25673e+08    25   2.27661e+08   2.25673e+08  1165225    0.87%
  64606 41930   2.25673e+08    23   2.27661e+08   2.25673e+08  1165228    0.87%
  64607 41931   2.25673e+08    28   2.27661e+08   2.25673e+08  1165235    0.87%
Elapsed time = 41.93 sec. (51035.20 ticks, tree = 32.29 MB, solutions = 25)
  69798 45575   2.27608e+08    14   2.27661e+08   2.25673e+08  1252256    0.87%
  69799 45576   2.27608e+08    15   2.27661e+08   2.25673e+08  1252277    0.87%
  69800 45577   2.27608e+08    16   2.27661e+08   2.25673e+08  1252285    0.87%
  69801 45576        cutoff         2.27661e+08   2.25673e+08  1252300    0.87%
  69802 45575        cutoff         2.27661e+08   2.25673e+08  1252311    0.87%
  69803 45574        cutoff         2.27661e+08   2.25673e+08  1252373    0.87%
  69804 45573        cutoff         2.27661e+08   2.25673e+08  1252408    0.87%
  69805 45572        cutoff         2.27661e+08   2.25673e+08  1252455    0.87%
  69806 45571    infeasible         2.27661e+08   2.25673e+08  1252455    0.87%
  69807 45570        cutoff         2.27661e+08   2.25673e+08  1252608    0.87%
Elapsed time = 45.41 sec. (54859.97 ticks, tree = 34.79 MB, solutions = 25)
  73882 48272   2.25673e+08    24   2.27661e+08   2.25673e+08  1338646    0.87%
  73883 48273   2.25673e+08    30   2.27661e+08   2.25673e+08  1338701    0.87%
  73884 48274   2.25673e+08    28   2.27661e+08   2.25673e+08  1338702    0.87%
  73885 48275   2.25673e+08    25   2.27661e+08   2.25673e+08  1338708    0.87%
  73886 48276   2.25673e+08    26   2.27661e+08   2.25673e+08  1338715    0.87%
  73887 48277   2.25673e+08    26   2.27661e+08   2.25673e+08  1338716    0.87%
  73888 48278   2.25673e+08    23   2.27661e+08   2.25673e+08  1338720    0.87%
  73889 48279   2.25673e+08    25   2.27661e+08   2.25673e+08  1338725    0.87%
  73890 48280   2.25673e+08    25   2.27661e+08   2.25673e+08  1338731    0.87%
  73891 48281   2.25673e+08    25   2.27661e+08   2.25673e+08  1338732    0.87%
Elapsed time = 48.95 sec. (58678.53 ticks, tree = 36.96 MB, solutions = 25)
  78203 51286        cutoff         2.27661e+08   2.25673e+08  1423757    0.87%
  78204 51287   2.25673e+08    20   2.27661e+08   2.25673e+08  1423788    0.87%
  78205 51288   2.25673e+08    31   2.27661e+08   2.25673e+08  1423849    0.87%
  78206 51289   2.25673e+08    30   2.27661e+08   2.25673e+08  1423850    0.87%
  78207 51288        cutoff         2.27661e+08   2.25673e+08  1423887    0.87%
  78208 51289   2.25673e+08    30   2.27661e+08   2.25673e+08  1423946    0.87%
  78209 51290   2.25673e+08    33   2.27661e+08   2.25673e+08  1423956    0.87%
  78210 51291   2.25673e+08    31   2.27661e+08   2.25673e+08  1423959    0.87%
  78211 51292   2.25673e+08    31   2.27661e+08   2.25673e+08  1423961    0.87%
  78212 51293   2.25673e+08    29   2.27661e+08   2.25673e+08  1424013    0.87%
Elapsed time = 52.49 sec. (62506.34 ticks, tree = 39.14 MB, solutions = 25)
  82091 53992   2.25673e+08    26   2.27661e+08   2.25673e+08  1506570    0.87%
  82092 53993   2.25673e+08    29   2.27661e+08   2.25673e+08  1506620    0.87%
  82093 53994   2.25673e+08    28   2.27661e+08   2.25673e+08  1506622    0.87%
  82094 53995   2.25673e+08    27   2.27661e+08   2.25673e+08  1506632    0.87%
  82095 53996   2.25673e+08    27   2.27661e+08   2.25673e+08  1506637    0.87%
  82096 53997   2.25673e+08    27   2.27661e+08   2.25673e+08  1506639    0.87%
  82097 53998   2.25673e+08    25   2.27661e+08   2.25673e+08  1506643    0.87%
  82098 53999   2.25673e+08    25   2.27661e+08   2.25673e+08  1506650    0.87%
  82099 54000   2.25673e+08    27   2.27661e+08   2.25673e+08  1506654    0.87%
  82100 54001   2.25673e+08    26   2.27661e+08   2.25673e+08  1506668    0.87%
Elapsed time = 55.99 sec. (66326.03 ticks, tree = 41.02 MB, solutions = 25)
  86010 56358        cutoff         2.27661e+08   2.25673e+08  1594125    0.87%
  86011 56357        cutoff         2.27661e+08   2.25673e+08  1594205    0.87%
  86012 56358   2.26728e+08    27   2.27661e+08   2.25673e+08  1594360    0.87%
  86013 56357        cutoff         2.27661e+08   2.25673e+08  1594375    0.87%
  86014 56356    infeasible         2.27661e+08   2.25673e+08  1594375    0.87%
  86015 56357   2.27245e+08    18   2.27661e+08   2.25673e+08  1594507    0.87%
  86016 56356        cutoff         2.27661e+08   2.25673e+08  1594511    0.87%
  86017 56355        cutoff         2.27661e+08   2.25673e+08  1594517    0.87%
  86018 56354    infeasible         2.27661e+08   2.25673e+08  1594517    0.87%
  86019 56353        cutoff         2.27661e+08   2.25673e+08  1594729    0.87%
Elapsed time = 59.57 sec. (70162.84 ticks, tree = 42.54 MB, solutions = 25)
  90311 58625   2.25799e+08    28   2.27661e+08   2.25673e+08  1681750    0.87%
  90312 58626   2.25799e+08    27   2.27661e+08   2.25673e+08  1681754    0.87%
  90313 58627   2.25799e+08    30   2.27661e+08   2.25673e+08  1681780    0.87%
  90314 58628   2.25799e+08    29   2.27661e+08   2.25673e+08  1681788    0.87%
  90315 58629   2.26674e+08    24   2.27661e+08   2.25673e+08  1681795    0.87%
  90316 58630   2.26674e+08    24   2.27661e+08   2.25673e+08  1681800    0.87%
  90317 58631   2.26674e+08    24   2.27661e+08   2.25673e+08  1681801    0.87%
  90318 58631   2.26674e+08    24   2.27661e+08   2.25673e+08  1681802    0.87%
  90319 58632   2.26674e+08    27   2.27661e+08   2.25673e+08  1681809    0.87%
  90320 58633   2.26674e+08    25   2.27661e+08   2.25673e+08  1681810    0.87%
Elapsed time = 63.08 sec. (73990.01 ticks, tree = 44.05 MB, solutions = 25)
  95020 61844   2.26935e+08    26   2.27661e+08   2.25673e+08  1768905    0.87%
  95021 61845   2.26935e+08    22   2.27661e+08   2.25673e+08  1768916    0.87%
  95022 61846   2.26935e+08    22   2.27661e+08   2.25673e+08  1768917    0.87%
  95023 61847   2.26935e+08    24   2.27661e+08   2.25673e+08  1768927    0.87%
  95024 61848   2.26935e+08    24   2.27661e+08   2.25673e+08  1768930    0.87%
  95025 61847        cutoff         2.27661e+08   2.25673e+08  1768943    0.87%
  95026 61846        cutoff         2.27661e+08   2.25673e+08  1768944    0.87%
  95027 61845    infeasible         2.27661e+08   2.25673e+08  1768944    0.87%
  95028 61844        cutoff         2.27661e+08   2.25673e+08  1769034    0.87%
  95029 61843    infeasible         2.27661e+08   2.25673e+08  1769091    0.87%
Elapsed time = 67.04 sec. (77812.52 ticks, tree = 46.17 MB, solutions = 25)
  98536 63820   2.25719e+08    33   2.27661e+08   2.25673e+08  1857039    0.87%
  98537 63819    infeasible         2.27661e+08   2.25673e+08  1857039    0.87%
  98538 63820   2.25719e+08    33   2.27661e+08   2.25673e+08  1857046    0.87%
  98539 63821   2.25719e+08    34   2.27661e+08   2.25673e+08  1857063    0.87%
  98540 63822   2.25719e+08    34   2.27661e+08   2.25673e+08  1857068    0.87%
  98541 63823   2.25719e+08    35   2.27661e+08   2.25673e+08  1857072    0.87%
  98542 63824   2.25719e+08    35   2.27661e+08   2.25673e+08  1857074    0.87%
  98543 63825   2.25719e+08    35   2.27661e+08   2.25673e+08  1857075    0.87%
  98544 63826   2.25719e+08    35   2.27661e+08   2.25673e+08  1857076    0.87%
  98545 63827   2.25719e+08    35   2.27661e+08   2.25673e+08  1857077    0.87%
Elapsed time = 70.61 sec. (81632.35 ticks, tree = 47.53 MB, solutions = 25)
 102207 66133   2.25673e+08    29   2.27661e+08   2.25673e+08  1941225    0.87%
 102208 66134   2.25673e+08    27   2.27661e+08   2.25673e+08  1941248    0.87%
 102209 66135   2.25673e+08    26   2.27661e+08   2.25673e+08  1941250    0.87%
 102210 66136   2.25673e+08    25   2.27661e+08   2.25673e+08  1941257    0.87%
 102211 66137   2.25673e+08    28   2.27661e+08   2.25673e+08  1941268    0.87%
 102212 66138   2.25673e+08    28   2.27661e+08   2.25673e+08  1941276    0.87%
 102213 66139   2.25673e+08    28   2.27661e+08   2.25673e+08  1941289    0.87%
 102214 66140   2.25673e+08    35   2.27661e+08   2.25673e+08  1941339    0.87%
 102215 66141   2.25673e+08    32   2.27661e+08   2.25673e+08  1941347    0.87%
 102216 66142   2.25673e+08    39   2.27661e+08   2.25673e+08  1941376    0.87%
Elapsed time = 74.18 sec. (85453.62 ticks, tree = 51.94 MB, solutions = 25)
 105949 68331   2.26488e+08    30   2.27661e+08   2.25673e+08  2031480    0.87%
 105950 68330        cutoff         2.27661e+08   2.25673e+08  2031512    0.87%
 105951 68329        cutoff         2.27661e+08   2.25673e+08  2031613    0.87%
 105952 68328    infeasible         2.27661e+08   2.25673e+08  2031613    0.87%
 105953 68327        cutoff         2.27661e+08   2.25673e+08  2031718    0.87%
 105954 68328   2.25673e+08    31   2.27661e+08   2.25673e+08  2031855    0.87%
 105955 68329   2.25673e+08    37   2.27661e+08   2.25673e+08  2031878    0.87%
 105956 68330   2.25673e+08    36   2.27661e+08   2.25673e+08  2031879    0.87%
 105957 68331   2.25673e+08    36   2.27661e+08   2.25673e+08  2031884    0.87%
 105958 68332   2.25673e+08    34   2.27661e+08   2.25673e+08  2031886    0.87%
Elapsed time = 77.78 sec. (89293.47 ticks, tree = 53.38 MB, solutions = 25)
 110270 71018   2.25673e+08    33   2.27661e+08   2.25673e+08  2117010    0.87%
 110271 71019   2.25673e+08    31   2.27661e+08   2.25673e+08  2117015    0.87%
 110272 71020   2.25673e+08    30   2.27661e+08   2.25673e+08  2117021    0.87%
 110273 71021   2.25673e+08    31   2.27661e+08   2.25673e+08  2117076    0.87%
 110274 71022   2.25673e+08    31   2.27661e+08   2.25673e+08  2117084    0.87%
 110275 71023   2.25673e+08    32   2.27661e+08   2.25673e+08  2117119    0.87%
 110276 71024   2.25673e+08    27   2.27661e+08   2.25673e+08  2117147    0.87%
 110277 71025   2.25673e+08    25   2.27661e+08   2.25673e+08  2117148    0.87%
 110278 71026   2.25673e+08    31   2.27661e+08   2.25673e+08  2117204    0.87%
 110279 71027   2.25673e+08    30   2.27661e+08   2.25673e+08  2117239    0.87%
Elapsed time = 81.29 sec. (93119.09 ticks, tree = 55.46 MB, solutions = 25)
 113954 73005   2.26929e+08    32   2.27661e+08   2.25673e+08  2207181    0.87%
 113955 73006   2.26929e+08    31   2.27661e+08   2.25673e+08  2207182    0.87%
 113956 73005        cutoff         2.27661e+08   2.25673e+08  2207185    0.87%
 113957 73004        cutoff         2.27661e+08   2.25673e+08  2207191    0.87%
 113958 73003    infeasible         2.27661e+08   2.25673e+08  2207191    0.87%
 113959 73002    infeasible         2.27661e+08   2.25673e+08  2207191    0.87%
 113960 73001    infeasible         2.27661e+08   2.25673e+08  2207191    0.87%
 113961 73002   2.25799e+08    30   2.27661e+08   2.25673e+08  2207364    0.87%
 113962 73003   2.25799e+08    28   2.27661e+08   2.25673e+08  2207365    0.87%
 113963 73004   2.25799e+08    29   2.27661e+08   2.25673e+08  2207374    0.87%
Elapsed time = 84.92 sec. (96946.96 ticks, tree = 57.70 MB, solutions = 25)
 117751 75058   2.25673e+08    22   2.27661e+08   2.25673e+08  2294362    0.87%
 117752 75059   2.25673e+08    24   2.27661e+08   2.25673e+08  2294536    0.87%
 117753 75060   2.25673e+08    20   2.27661e+08   2.25673e+08  2294539    0.87%
 117754 75061   2.25673e+08    23   2.27661e+08   2.25673e+08  2294548    0.87%
 117755 75062   2.25673e+08    23   2.27661e+08   2.25673e+08  2294559    0.87%
 117756 75063   2.25673e+08    24   2.27661e+08   2.25673e+08  2294572    0.87%
 117757 75064   2.25673e+08    27   2.27661e+08   2.25673e+08  2294637    0.87%
 117758 75065   2.25673e+08    27   2.27661e+08   2.25673e+08  2294642    0.87%
 117759 75066   2.25673e+08    26   2.27661e+08   2.25673e+08  2294684    0.87%
 117760 75067   2.25673e+08    26   2.27661e+08   2.25673e+08  2294804    0.87%
Elapsed time = 88.50 sec. (100783.98 ticks, tree = 59.04 MB, solutions = 25)
 120754 77021   2.25673e+08    22   2.27661e+08   2.25673e+08  2369125    0.87%
 120755 77022   2.25673e+08    23   2.27661e+08   2.25673e+08  2369153    0.87%
 120756 77023   2.25673e+08    31   2.27661e+08   2.25673e+08  2369195    0.87%
 120757 77024   2.25673e+08    32   2.27661e+08   2.25673e+08  2369206    0.87%
 120758 77025   2.25673e+08    30   2.27661e+08   2.25673e+08  2369207    0.87%
 120759 77026   2.25673e+08    30   2.27661e+08   2.25673e+08  2369210    0.87%
 120760 77027   2.25673e+08    29   2.27661e+08   2.25673e+08  2369211    0.87%
 120761 77028   2.25673e+08    26   2.27661e+08   2.25673e+08  2369227    0.87%
 120762 77029   2.25673e+08    26   2.27661e+08   2.25673e+08  2369231    0.87%
 120763 77030   2.25673e+08    31   2.27661e+08   2.25673e+08  2369268    0.87%
Elapsed time = 92.06 sec. (104605.83 ticks, tree = 61.21 MB, solutions = 25)
 121916 77665   2.25673e+08    25   2.27661e+08   2.25673e+08  2402893    0.87%
 121917 77666   2.25673e+08    25   2.27661e+08   2.25673e+08  2402894    0.87%
 121918 77667   2.25700e+08    34   2.27661e+08   2.25673e+08  2402901    0.87%
 121919 77668   2.25700e+08    33   2.27661e+08   2.25673e+08  2402912    0.87%
 121920 77669   2.25700e+08    35   2.27661e+08   2.25673e+08  2402931    0.87%
 121921 77670   2.25700e+08    37   2.27661e+08   2.25673e+08  2402938    0.87%
 121922 77671   2.25700e+08    34   2.27661e+08   2.25673e+08  2402939    0.87%
 121923 77672   2.25700e+08    32   2.27661e+08   2.25673e+08  2402943    0.87%
 121924 77672   2.25700e+08    32   2.27661e+08   2.25673e+08  2402949    0.87%
 121925 77672   2.25700e+08    32   2.27661e+08   2.25673e+08  2402952    0.87%
Elapsed time = 95.30 sec. (108423.18 ticks, tree = 62.75 MB, solutions = 25)
 125108 79675        cutoff         2.27661e+08   2.25673e+08  2475538    0.87%
 125109 79674        cutoff         2.27661e+08   2.25673e+08  2475617    0.87%
 125110 79673        cutoff         2.27661e+08   2.25673e+08  2475659    0.87%
 125111 79672    infeasible         2.27661e+08   2.25673e+08  2475659    0.87%
 125112 79671        cutoff         2.27661e+08   2.25673e+08  2475715    0.87%
 125113 79670        cutoff         2.27661e+08   2.25673e+08  2475835    0.87%
 125114 79669        cutoff         2.27661e+08   2.25673e+08  2475958    0.87%
 125115 79669   2.27208e+08    11   2.27661e+08   2.25673e+08  2476162    0.87%
 125116 79668        cutoff         2.27661e+08   2.25673e+08  2476169    0.87%
 125117 79667    infeasible         2.27661e+08   2.25673e+08  2476169    0.87%
Elapsed time = 98.76 sec. (112259.48 ticks, tree = 64.30 MB, solutions = 25)

Cover cuts applied:  460
Mixed integer rounding cuts applied:  14
Gomory fractional cuts applied:  2

Root node processing (before b&c):
  Real time             =    0.05 sec. (50.08 ticks)
Sequential b&c:
  Real time             =   99.95 sec. (113600.80 ticks)
                          ------------
Total (root+branch&cut) =  100.00 sec. (113650.88 ticks)

Solution pool: 25 solutions saved.

MIP - Time limit exceeded, integer feasible:  Objective =  2.2766125500e+08
Current MIP best bound =  2.2567326400e+08 (gap = 1.98799e+06, 0.87%)
Solution time =  100.00 sec.  Iterations = 2500593  Nodes = 126172 (80225)
Deterministic time = 113650.88 ticks  (1136.51 ticks/sec)


Incumbent solution written to file '/tmp/tmpihoZUn.cplex.sol'.
